[20]
0
1
2
3
4
5
6
7
8
9
10
11
12
13
14
15
16
17
18
19
[190]
0,1,1
0,2,3
0,3,4
0,4,6
0,5,6
0,6,4
0,7,8
0,8,3
0,9,4
0,10,6
0,11,1
0,12,2
0,13,6
0,14,7
0,15,5
0,16,6
0,17,3
0,18,8
0,19,5
1,2,1
1,3,1
1,4,1
1,5,8
1,6,9
1,7,7
1,8,5
1,9,3
1,10,8
1,11,2
1,12,8
1,13,4
1,14,2
1,15,6
1,16,7
1,17,9
1,18,1
1,19,2
2,3,3
2,4,8
2,5,4
2,6,5
2,7,8
2,8,4
2,9,3
2,10,8
2,11,5
2,12,1
2,13,3
2,14,4
2,15,7
2,16,9
2,17,5
2,18,2
2,19,4
3,4,5
3,5,5
3,6,8
3,7,9
3,8,7
3,9,5
3,10,8
3,11,5
3,12,3
3,13,1
3,14,2
3,15,7
3,16,8
3,17,2
3,18,3
3,19,4
4,5,2
4,6,3
4,7,4
4,8,5
4,9,8
4,10,5
4,11,8
4,12,2
4,13,4
4,14,6
4,15,8
4,16,9
4,17,2
4,18,3
4,19,2
5,6,4
5,7,7
5,8,3
5,9,1
5,10,8
5,11,5
5,12,2
5,13,1
5,14,5
5,15,8
5,16,7
5,17,2
5,18,3
5,19,2
6,7,8
6,8,6
6,9,3
6,10,8
6,11,5
6,12,4
6,13,2
6,14,3
6,15,6
6,16,7
6,17,5
6,18,9
6,19,1
7,8,1
7,9,5
7,10,5
7,11,2
7,12,3
7,13,7
7,14,5
7,15,6
7,16,2
7,17,3
7,18,1
7,19,5
8,9,9
8,10,5
8,11,6
8,12,4
8,13,8
8,14,7
8,15,9
8,16,1
8,17,3
8,18,5
8,19,4
9,10,9
9,11,8
9,12,5
9,13,3
9,14,1
9,15,5
9,16,6
9,17,7
9,18,9
9,19,4
10,11,2
10,12,3
10,13,1
10,14,5
10,15,9
10,16,7
10,17,5
10,18,3
10,19,1
11,12,5
11,13,9
11,14,4
11,15,5
11,16,3
11,17,1
11,18,6
11,19,7
12,13,9
12,14,4
12,15,2
12,16,3
12,17,1
12,18,5
12,19,6
13,14,7
13,15,9
13,16,5
13,17,1
13,18,3
13,19,5
14,15,4
14,16,6
14,17,8
14,18,7
14,19,9
15,16,4
15,17,5
15,18,6
15,19,1
16,17,2
16,18,3
16,19,4
17,18,5
17,19,9
18,19,1